%chk=molecule_8.chk
%mem=10GB
# opt b3lyp/6-31g(d)

Title

0 1
O    -1.768548  -2.129644  -0.725980
C    -2.311890  -1.112761  -0.232418
C    -3.498556  -0.626858  -0.827592
O    -4.152462  -1.262353  -1.904781
C    -3.783899  -2.491169  -2.523012
C    -4.066016   0.554227  -0.339641
C    -5.320965   1.100266  -0.967521
N    -3.462760   1.238302   0.666988
C    -2.324535   0.796225   1.279256
C    -1.722974  -0.435685   0.876290
C    -0.562098  -0.899563   1.593829
C     0.144607  -2.247855   1.389925
O     0.425364  -2.827243   2.640346
C     1.478421  -2.067042   0.637263
C     1.288555  -1.622772  -0.822603
C     2.624056  -1.430111  -1.558654
C     3.346447  -0.139408  -1.142198
C     4.604916   0.083122  -1.994126
C     5.427658   1.294037  -1.527524
C     4.737819   2.626184  -1.820397
C    -0.007933  -0.071924   2.587770
C    -0.584703   1.137958   2.935664
C    -1.750657   1.577060   2.305250
O    -2.362435   2.790088   2.669330
C    -1.886281   3.670774   3.682400
H    -2.791878  -2.393911  -3.012073
H    -3.779055  -3.312419  -1.775654
H    -4.531269  -2.737087  -3.304768
H    -5.100847   1.444896  -1.999716
H    -6.102511   0.312038  -1.003427
H    -5.726439   1.955798  -0.387719
H    -3.902064   2.135157   0.974998
H    -0.464003  -2.992472   0.848666
H    -0.445457  -3.091316   3.039278
H     2.108119  -1.333641   1.182591
H     2.021561  -3.037802   0.642321
H     0.699660  -0.681468  -0.870400
H     0.717886  -2.411413  -1.358301
H     3.282969  -2.309021  -1.384273
H     2.409996  -1.381678  -2.649127
H     3.641249  -0.201788  -0.073591
H     2.654175   0.719709  -1.271122
H     5.251390  -0.818935  -1.921439
H     4.322529   0.210149  -3.062363
H     5.640720   1.216088  -0.439244
H     6.402375   1.282444  -2.061825
H     5.428063   3.460531  -1.574545
H     4.467986   2.696651  -2.895538
H     3.824547   2.740871  -1.200802
H     0.884303  -0.376074   3.122079
H    -0.116681   1.722087   3.716063
H    -0.869486   4.035358   3.424639
H    -1.871006   3.151530   4.663969
H    -2.567965   4.542955   3.753458

