%chk=molecule_4.chk
%mem=10GB
# opt b3lyp/6-31g(d)

Title

0 1
O     4.465033   0.137804   0.278537
C     3.506808  -0.358063   1.158360
C     2.050655  -0.259334   0.815223
C     1.728091  -1.201255  -0.352875
C     0.253314  -1.416527  -0.448197
C    -0.389781  -2.613864  -0.737016
N    -1.728654  -2.455570  -0.657803
C    -1.932717  -1.168327  -0.324194
C    -3.157581  -0.542018  -0.107647
O    -4.351816  -1.247550  -0.235927
C    -3.145303   0.818323   0.245926
C    -1.925615   1.517275   0.362449
C    -0.683860   0.871431   0.136361
C     0.593946   1.650759   0.163945
C     0.566413   3.123861  -0.123690
N     1.751597   1.125966   0.457280
C    -0.741631  -0.492814  -0.197272
O     3.866943  -0.911407   2.231873
H     5.452581   0.068921   0.493242
H     1.456645  -0.542785   1.714596
H     2.102989  -0.778425  -1.310222
H     2.220236  -2.186124  -0.190894
H     0.095267  -3.553266  -0.968490
H    -2.453067  -3.191772  -0.811931
H    -5.247642  -0.800804  -0.079392
H    -4.077134   1.339343   0.424949
H    -1.961848   2.564862   0.630576
H     0.248369   3.675964   0.785193
H    -0.136123   3.341175  -0.955866
H     1.573886   3.484224  -0.423914

