%chk=molecule_10.chk
%mem=10GB
# opt b3lyp/6-31g(d)

Title

0 1
O    -6.100003   0.544001   1.478636
C    -4.830429   0.387592   0.919168
C    -4.386862   1.346128   0.009180
C    -3.127445   1.239627  -0.576429
C    -2.276558   0.165551  -0.264577
C    -0.933436   0.091249  -0.902287
N     0.008042  -0.653719  -0.427017
C     1.249236  -0.659233  -1.182313
C     2.283039   0.189444  -0.489333
N     3.664805  -0.195426  -0.522776
C     4.710902   0.585201   0.132074
C     4.621846   0.423746   1.615663
O     4.994114  -0.780939   2.203394
O     4.187629   1.366318   2.330281
O     1.938564   1.263834   0.076007
C     0.926444  -0.111232  -2.575099
S    -0.521378   0.976989  -2.403060
C    -2.721609  -0.816606   0.654570
O    -1.893690  -1.902223   0.956518
C    -3.999519  -0.701172   1.248584
Cl   -4.560675  -1.917086   2.397575
H    -6.493469  -0.106989   2.145830
H    -5.023320   2.184960  -0.243544
H    -2.817928   2.014374  -1.265242
H     1.619681  -1.704175  -1.260539
H     3.942018  -1.052497  -1.052599
H     5.706208   0.224095  -0.204559
H     4.622893   1.655600  -0.155473
H     4.929922  -0.911403   3.205909
H     0.653134  -0.949554  -3.251201
H     1.780149   0.442751  -3.022096
H    -2.152306  -2.639206   1.599354

