%chk=molecule_3.chk
%mem=10GB
# opt b3lyp/6-31g(d)

Title

0 1
O    -4.437327   1.767706   0.428361
C    -3.402506   1.070061   0.258873
C    -2.115688   1.742305   0.015179
O    -2.073880   3.001810  -0.023602
C    -3.456693  -0.416778   0.299919
O    -4.640175  -1.141683   0.523444
C    -5.929053  -0.578085   0.737308
C    -2.332276  -1.121251   0.117311
C    -1.017236  -0.481109  -0.126934
C    -0.893256   0.922331  -0.183451
C     0.375053   1.504363  -0.417898
O     0.494854   2.898246  -0.427908
C     1.504384   0.674989  -0.627988
C     2.876278   1.272219  -0.883159
O     3.839240   0.340976  -1.353068
C     3.872468  -0.849894  -0.583992
C     4.271954  -0.610634   0.883532
C     2.553577  -1.620580  -0.724564
C     1.368576  -0.720739  -0.523329
C     0.111883  -1.288367  -0.293853
H    -6.660796  -1.398907   0.882653
H    -5.925420   0.052343   1.651246
H    -6.240525   0.014660  -0.148349
H    -2.387178  -2.203507   0.150887
H     1.375371   3.386689  -0.521724
H     2.780323   2.049359  -1.669461
H     3.248013   1.779269   0.033121
H     4.668564  -1.492386  -1.019498
H     4.508118  -1.579847   1.372163
H     5.175260   0.033689   0.927991
H     3.451728  -0.127563   1.455056
H     2.528205  -2.464162   0.000201
H     2.493320  -2.048419  -1.748804
H     0.014841  -2.367103  -0.244993

