%chk=molecule_9.chk
%mem=10GB
# opt b3lyp/6-31g(d)

Title

0 1
O     4.522279   2.869669   1.415167
C     3.547245   2.037849   0.862974
C     3.882904   0.778250   0.331369
O     5.231062   0.381455   0.416181
C     5.750084  -0.917621   0.153985
C     2.863905  -0.020840  -0.251708
O     3.178332  -1.241409  -0.855704
C     3.253383  -1.385071  -2.269790
C     1.519410   0.415556  -0.210258
C     1.212339   1.676001   0.334481
O    -0.112155   2.125561   0.393719
C    -1.191303   1.420633  -0.217081
C    -0.956836  -0.097613  -0.123837
C    -2.088616  -0.896104  -0.804332
C    -3.399993  -0.749021  -0.074316
C    -4.397214   0.109958  -0.564915
C    -5.602424   0.259182   0.128114
C    -5.821241  -0.444631   1.320155
O    -7.017639  -0.303475   2.019640
C    -4.828883  -1.296579   1.814633
C    -3.623150  -1.448135   1.123140
C     0.400291  -0.434288  -0.771587
C     2.224009   2.478170   0.855834
H     5.501881   2.613115   1.446679
H     5.726488  -1.130674  -0.933596
H     5.182885  -1.683364   0.723810
H     6.808523  -0.952689   0.483580
H     3.588520  -2.414538  -2.512318
H     3.984637  -0.661015  -2.687054
H     2.263787  -1.214416  -2.737510
H    -2.132520   1.703181   0.298830
H    -1.268144   1.729964  -1.282360
H    -0.908444  -0.384618   0.951215
H    -1.818750  -1.975344  -0.825216
H    -2.195687  -0.573923  -1.864210
H    -4.240220   0.666735  -1.480239
H    -6.363740   0.923279  -0.260117
H    -7.756597   0.304551   1.687366
H    -4.991347  -1.840088   2.736660
H    -2.862415  -2.108289   1.520884
H     0.337449  -0.253721  -1.866264
H     0.620258  -1.510961  -0.601864
H     1.977642   3.445317   1.276086

