%chk=molecule_6.chk
%mem=10GB
# opt b3lyp/6-31g(d)

Title

0 1
C    -5.034995  -0.471392  -2.283080
C    -4.920446  -0.105319  -0.829822
C    -3.678422   0.281752  -0.294258
C    -3.571897   0.618702   1.068059
C    -2.254379   1.068223   1.638108
C    -1.064534   0.591694   0.792482
C    -1.278581   0.851407  -0.723248
C    -0.204859   0.118751  -1.579218
C     1.253446   0.618299  -1.468801
C     1.947090   0.174490  -0.203451
C     2.481914  -1.052978  -0.003756
C     2.505729  -2.107291  -1.085117
C     3.164527  -1.354847   1.311605
C     4.651630  -1.191614   1.189846
C     5.214129   0.020162   1.093799
C     6.671396   0.230596   0.973517
C     7.644057  -0.907552   0.888279
O     7.109106   1.411985   0.931775
C    -1.291855   2.364982  -1.027263
O    -2.545190   0.310283  -1.118755
C    -4.715054   0.603916   1.879276
C    -5.953202   0.231738   1.348341
O    -7.077300   0.222665   2.171088
C    -6.054975  -0.124630  -0.002902
H    -4.780949   0.410407  -2.909434
H    -6.062987  -0.804227  -2.543045
H    -4.331560  -1.299023  -2.517257
H    -2.135460   0.672879   2.671007
H    -2.250155   2.178065   1.702657
H    -0.922905  -0.498501   0.965350
H    -0.160569   1.117608   1.159229
H    -0.251068  -0.966716  -1.355675
H    -0.501354   0.215973  -2.647382
H     1.288261   1.724427  -1.529724
H     1.828075   0.260484  -2.349069
H     2.059800   0.924541   0.574279
H     1.477686  -2.423569  -1.347771
H     3.057855  -3.008780  -0.744096
H     3.023034  -1.721001  -1.987802
H     2.777479  -0.708860   2.131400
H     2.939748  -2.403638   1.604184
H     5.260820  -2.087565   1.194870
H     4.579385   0.899068   1.110631
H     7.404705  -1.541841   0.008703
H     7.592673  -1.517858   1.814593
H     8.681024  -0.525611   0.774593
H    -2.217707   2.834101  -0.632344
H    -1.270035   2.541960  -2.124397
H    -0.426103   2.879481  -0.559351
H    -4.645377   0.885880   2.923134
H    -7.992234  -0.031089   1.815704
H    -7.019414  -0.410612  -0.406991

