%chk=molecule_8_ECD.chk
%mem=10GB
# td=(nstates=20,root=20) cam-b3lyp/6-31g(d)

Title

0 1
 O                     -0.030533     1.499158     0.738279
 C                      1.143223     1.227598     0.434602
 C                      2.134836     2.290767     0.252896
 O                      1.778872     3.598231     0.471589
 C                      0.727952     4.117293    -0.353767
 C                      3.446819     2.023292    -0.039487
 C                      4.506064     3.075262    -0.196121
 N                      3.850596     0.721999    -0.170954
 C                      2.999812    -0.351812    -0.041869
 C                      1.629170    -0.160480     0.238291
 C                      0.794745    -1.315188     0.380909
 C                     -0.712011    -1.224104     0.654477
 O                     -1.217353    -2.467789     1.161961
 C                     -1.489946    -0.776603    -0.600398
 C                     -2.921178    -0.271183    -0.349220
 C                     -3.934207    -1.323175     0.129706
 C                     -5.352889    -0.773455     0.360049
 C                     -6.078919    -0.309955    -0.912341
 C                     -7.546971     0.094037    -0.693995
 C                     -7.739179     1.339274     0.180259
 C                      1.373078    -2.567553     0.252328
 C                      2.738518    -2.749158    -0.036297
 C                      3.554138    -1.648065    -0.191140
 O                      4.898524    -1.662023    -0.469829
 C                      5.532791    -2.925250    -0.608073
 H                      0.631362     5.170763    -0.080313
 H                      0.996577     4.043071    -1.416918
 H                     -0.208499     3.589369    -0.167586
 H                      5.260845     2.993559     0.596905
 H                      5.022932     2.974214    -1.159036
 H                      4.054739     4.065116    -0.136951
 H                      4.820782     0.510314    -0.360690
 H                     -0.878527    -0.495103     1.448066
 H                     -1.506387    -2.997522     0.402835
 H                     -1.498005    -1.618973    -1.314289
 H                     -0.927690     0.026005    -1.084043
 H                     -2.868771     0.548065     0.380868
 H                     -3.280230     0.178039    -1.284950
 H                     -3.571177    -1.771789     1.060327
 H                     -3.983976    -2.140789    -0.608331
 H                     -5.958027    -1.556956     0.839666
 H                     -5.298969     0.052475     1.082837
 H                     -6.044141    -1.123896    -1.651676
 H                     -5.542734     0.535707    -1.365269
 H                     -8.012137     0.272698    -1.673181
 H                     -8.091315    -0.751575    -0.248941
 H                     -7.365406     1.185261     1.198563
 H                     -7.206853     2.201813    -0.240499
 H                     -8.799290     1.607917     0.256219
 H                      0.754519    -3.442722     0.410668
 H                      3.135802    -3.754084    -0.126846
 H                      5.457416    -3.511157     0.316704
 H                      5.099569    -3.498893    -1.437243
 H                      6.582269    -2.714779    -0.821070


