%chk=molecule_7_ECD.chk
%mem=10GB
# td=(nstates=20,root=20) cam-b3lyp/6-31g(d)

Title

0 1
 C                     -6.147923    -4.027322    -1.149179
 O                     -4.811209    -3.856297    -0.696291
 C                     -4.295121    -2.600981    -0.666438
 C                     -4.975753    -1.454380    -1.044751
 C                     -4.326586    -0.198273    -0.969711
 C                     -2.978962    -0.118872    -0.492305
 C                     -2.311311     1.124643    -0.409172
 C                     -2.964689     2.287123    -0.834649
 C                     -2.276400     3.593374    -0.787725
 O                     -2.795901     4.638031    -1.143401
 C                     -4.294087     2.212544    -1.312723
 C                     -4.959825     1.010375    -1.369987
 C                     -2.315945    -1.323280    -0.125627
 O                     -1.002917    -1.327343     0.237547
 C                     -0.349946    -0.122610     0.717117
 C                      1.109891    -0.293255     0.300529
 C                      1.327128    -0.465169    -1.088076
 C                      2.591870    -0.621401    -1.588793
 C                      3.717871    -0.606607    -0.725275
 C                      3.524816    -0.439598     0.689012
 C                      4.684978    -0.431969     1.509700
 C                      5.937839    -0.592035     0.960914
 C                      6.126758    -0.770260    -0.425726
 O                      7.367954    -0.953807    -0.971693
 C                      5.024456    -0.766188    -1.267481
 O                      5.143484    -0.976162    -2.619970
 C                      5.843404     0.035909    -3.353622
 C                      2.177567    -0.285655     1.193226
 C                      1.887292    -0.142491     2.658866
 O                      2.757541    -0.091334     3.528115
 C                     -0.548229    -0.077046     2.221315
 O                     -1.856471    -0.022780     2.532313
 C                     -2.223508     0.000270     3.912037
 C                      0.483768    -0.074365     3.082228
 C                     -0.947300     1.168686     0.124833
 C                     -0.248793     2.325324     0.188311
 C                     -0.817963     3.603674    -0.257437
 O                     -0.194073     4.650646    -0.211540
 C                     -2.954729    -2.536765    -0.204794
 H                     -6.347544    -5.098179    -1.088340
 H                     -6.263405    -3.692136    -2.187570
 H                     -6.857889    -3.485841    -0.511320
 H                     -5.995693    -1.493375    -1.407814
 H                     -4.769260     3.135799    -1.628275
 H                     -5.982798     0.968110    -1.735001
 H                      0.473513    -0.481225    -1.757989
 H                      2.756385    -0.764726    -2.650324
 H                      4.573210    -0.301415     2.574835
 H                      6.811589    -0.589080     1.611590
 H                      8.025272    -0.936542    -0.258806
 H                      5.776085    -0.256575    -4.403912
 H                      5.367487     1.015546    -3.216741
 H                      6.893456     0.091303    -3.053257
 H                     -1.856726    -0.895347     4.425756
 H                     -3.313421     0.019349     3.927028
 H                     -1.827176     0.895746     4.403907
 H                      0.344728    -0.013147     4.155018
 H                      0.762216     2.363799     0.581864
 H                     -2.440702    -3.450101     0.071000


