%chk=molecule_5_ECD.chk
%mem=10GB
# td=(nstates=20,root=20) cam-b3lyp/6-31g(d)

Title

0 1
 O                     -0.048912     2.337898    -2.115115
 C                      0.191824     2.797932    -0.868771
 C                     -0.801379     2.295686     0.186200
 C                     -0.052264     1.968661     1.503334
 C                      1.007650     0.935707     1.285896
 C                      2.263849     0.874017     1.840201
 N                      2.953006    -0.201661     1.320610
 C                      2.151474    -0.834194     0.399249
 C                      2.426134    -1.941291    -0.408702
 O                      3.659969    -2.521730    -0.291734
 C                      1.424370    -2.361794    -1.275892
 C                      0.179997    -1.707014    -1.313851
 C                     -0.122610    -0.596189    -0.517454
 C                     -1.458341     0.065309    -0.557516
 C                     -2.672036    -0.766323    -0.968524
 C                     -3.393317    -1.522607     0.184817
 C                     -4.001113    -0.566936     1.221323
 C                     -2.519069    -2.587643     0.863410
 N                     -1.747138     1.282889    -0.251665
 C                      0.912090    -0.149965     0.351759
 O                      1.080328     3.586496    -0.625373
 H                      0.627683     2.756447    -2.680860
 H                     -1.409021     3.188981     0.395066
 H                     -0.809214     1.634514     2.224759
 H                      0.388308     2.890278     1.896673
 H                      2.730053     1.530190     2.562303
 H                      3.901056    -0.465657     1.537103
 H                      3.714933    -3.269660    -0.906973
 H                      1.602642    -3.212583    -1.930642
 H                     -0.556591    -2.087951    -2.010995
 H                     -3.387098    -0.069475    -1.415483
 H                     -2.407959    -1.497049    -1.739811
 H                     -4.228206    -2.048656    -0.302498
 H                     -3.224417    -0.015585     1.761569
 H                     -4.654795     0.173543     0.747490
 H                     -4.592854    -1.126036     1.956613
 H                     -3.109996    -3.162344     1.587056
 H                     -1.680056    -2.135760     1.404411
 H                     -2.100166    -3.293247     0.136506


